59
125
87	1
86	2
85	3
83	2
82	1
81	2
80	3
79	5
78	2
77	1
76	1
75	1
72	1
71	2
70	1
69	1
68	1
67	1
66	1
65	2
64	1
63	1
61	1
60	3
59	1
58	2
57	1
55	2
54	1
53	1
52	1
51	2
50	1
49	2
48	1
47	2
46	2
44	1
42	1
41	1
40	1
39	3
38	2
36	3
35	1
33	2
31	3
30	3
29	1
28	2
26	3
25	2
24	2
22	1
19	2
18	4
17	1
16	1
13	1
